749.24 0
0 5 37 67 22 11 74 71 3 52 75 0
0 28 70 24 16 54 32 72 10 57 0
0 21 38 51 46 6 30 33 1 0
0 41 64 39 68 55 25 58 2 17 29 0
0 12 65 23 59 50 43 4 18 40 0
0 44 45 14 26 61 8 19 20 0
0 35 34 9 53 60 62 49 42 63 66 0
0 47 56 13 48 27 15 31 7 73 69 36 0